\* Grafik *\
Minimize
OBJ: __dummy
Subject To
Sum_of_Products_out_of_Warehouse_1_PN: Grafik_AA_1_PN + Grafik_DH_1_PN
 + Grafik_HB_1_PN + Grafik_KC_1_PN + Grafik_KS_1_PN + Grafik_NK_1_PN
 + Grafik_SC_1_PN <= 14
Sum_of_Products_out_of_Warehouse_2_WT: Grafik_AA_2_WT + Grafik_DH_2_WT
 + Grafik_HB_2_WT + Grafik_KC_2_WT + Grafik_KS_2_WT + Grafik_NK_2_WT
 + Grafik_SC_2_WT <= 14
Sum_of_Products_out_of_Warehouse_3_SR: Grafik_AA_3_SR + Grafik_DH_3_SR
 + Grafik_HB_3_SR + Grafik_KC_3_SR + Grafik_KS_3_SR + Grafik_NK_3_SR
 + Grafik_SC_3_SR <= 14
Sum_of_Products_out_of_Warehouse_4_CW: Grafik_AA_4_CW + Grafik_DH_4_CW
 + Grafik_HB_4_CW + Grafik_KC_4_CW + Grafik_KS_4_CW + Grafik_NK_4_CW
 + Grafik_SC_4_CW <= 14
Sum_of_Products_out_of_Warehouse_5_PT: Grafik_AA_5_PT + Grafik_DH_5_PT
 + Grafik_HB_5_PT + Grafik_KC_5_PT + Grafik_KS_5_PT + Grafik_NK_5_PT
 + Grafik_SC_5_PT <= 14
Sum_of_Products_out_of_Warehouse_AA: Grafik_AA_1_PN + Grafik_AA_2_WT
 + Grafik_AA_3_SR + Grafik_AA_4_CW + Grafik_AA_5_PT = 8
Sum_of_Products_out_of_Warehouse_DH: Grafik_DH_1_PN + Grafik_DH_2_WT
 + Grafik_DH_3_SR + Grafik_DH_4_CW + Grafik_DH_5_PT = 8
Sum_of_Products_out_of_Warehouse_HB: Grafik_HB_1_PN + Grafik_HB_2_WT
 + Grafik_HB_3_SR + Grafik_HB_4_CW + Grafik_HB_5_PT = 8
Sum_of_Products_out_of_Warehouse_KC: Grafik_KC_1_PN + Grafik_KC_2_WT
 + Grafik_KC_3_SR + Grafik_KC_4_CW + Grafik_KC_5_PT = 8
Sum_of_Products_out_of_Warehouse_KS: Grafik_KS_1_PN + Grafik_KS_2_WT
 + Grafik_KS_3_SR + Grafik_KS_4_CW + Grafik_KS_5_PT = 8
Sum_of_Products_out_of_Warehouse_NK: Grafik_NK_1_PN + Grafik_NK_2_WT
 + Grafik_NK_3_SR + Grafik_NK_4_CW + Grafik_NK_5_PT = 8
Sum_of_Products_out_of_Warehouse_SC: Grafik_SC_1_PN + Grafik_SC_2_WT
 + Grafik_SC_3_SR + Grafik_SC_4_CW + Grafik_SC_5_PT = 8
Sum_of_Products_out_of_Warehoushsfde_1_PNAA: Grafik_AA_1_PN <= 2
Sum_of_Products_out_of_Warehoushsfde_1_PNDH: Grafik_DH_1_PN <= 0
Sum_of_Products_out_of_Warehoushsfde_1_PNHB: Grafik_HB_1_PN <= 4
Sum_of_Products_out_of_Warehoushsfde_1_PNKC: Grafik_KC_1_PN <= 6
Sum_of_Products_out_of_Warehoushsfde_1_PNKS: Grafik_KS_1_PN <= 3
Sum_of_Products_out_of_Warehoushsfde_1_PNNK: Grafik_NK_1_PN <= 0
Sum_of_Products_out_of_Warehoushsfde_1_PNSC: Grafik_SC_1_PN <= 5
Sum_of_Products_out_of_Warehoushsfde_2_WTAA: Grafik_AA_2_WT <= 2
Sum_of_Products_out_of_Warehoushsfde_2_WTDH: Grafik_DH_2_WT <= 6
Sum_of_Products_out_of_Warehoushsfde_2_WTHB: Grafik_HB_2_WT <= 8
Sum_of_Products_out_of_Warehoushsfde_2_WTKC: Grafik_KC_2_WT <= 0
Sum_of_Products_out_of_Warehoushsfde_2_WTKS: Grafik_KS_2_WT <= 0
Sum_of_Products_out_of_Warehoushsfde_2_WTNK: Grafik_NK_2_WT <= 0
Sum_of_Products_out_of_Warehoushsfde_2_WTSC: Grafik_SC_2_WT <= 5
Sum_of_Products_out_of_Warehoushsfde_3_SRAA: Grafik_AA_3_SR <= 2
Sum_of_Products_out_of_Warehoushsfde_3_SRDH: Grafik_DH_3_SR <= 0
Sum_of_Products_out_of_Warehoushsfde_3_SRHB: Grafik_HB_3_SR <= 4
Sum_of_Products_out_of_Warehoushsfde_3_SRKC: Grafik_KC_3_SR <= 6
Sum_of_Products_out_of_Warehoushsfde_3_SRKS: Grafik_KS_3_SR <= 3
Sum_of_Products_out_of_Warehoushsfde_3_SRNK: Grafik_NK_3_SR <= 0
Sum_of_Products_out_of_Warehoushsfde_3_SRSC: Grafik_SC_3_SR <= 5
Sum_of_Products_out_of_Warehoushsfde_4_CWAA: Grafik_AA_4_CW <= 2
Sum_of_Products_out_of_Warehoushsfde_4_CWDH: Grafik_DH_4_CW <= 6
Sum_of_Products_out_of_Warehoushsfde_4_CWHB: Grafik_HB_4_CW <= 0
Sum_of_Products_out_of_Warehoushsfde_4_CWKC: Grafik_KC_4_CW <= 0
Sum_of_Products_out_of_Warehoushsfde_4_CWKS: Grafik_KS_4_CW <= 8
Sum_of_Products_out_of_Warehoushsfde_4_CWNK: Grafik_NK_4_CW <= 6
Sum_of_Products_out_of_Warehoushsfde_4_CWSC: Grafik_SC_4_CW <= 0
Sum_of_Products_out_of_Warehoushsfde_5_PTAA: Grafik_AA_5_PT <= 2
Sum_of_Products_out_of_Warehoushsfde_5_PTDH: Grafik_DH_5_PT <= 0
Sum_of_Products_out_of_Warehoushsfde_5_PTHB: Grafik_HB_5_PT <= 4
Sum_of_Products_out_of_Warehoushsfde_5_PTKC: Grafik_KC_5_PT <= 6
Sum_of_Products_out_of_Warehoushsfde_5_PTKS: Grafik_KS_5_PT <= 0
Sum_of_Products_out_of_Warehoushsfde_5_PTNK: Grafik_NK_5_PT <= 2
Sum_of_Products_out_of_Warehoushsfde_5_PTSC: Grafik_SC_5_PT <= 5
Bounds
0 <= Grafik_AA_1_PN
0 <= Grafik_AA_2_WT
0 <= Grafik_AA_3_SR
0 <= Grafik_AA_4_CW
0 <= Grafik_AA_5_PT
0 <= Grafik_DH_1_PN
0 <= Grafik_DH_2_WT
0 <= Grafik_DH_3_SR
0 <= Grafik_DH_4_CW
0 <= Grafik_DH_5_PT
0 <= Grafik_HB_1_PN
0 <= Grafik_HB_2_WT
0 <= Grafik_HB_3_SR
0 <= Grafik_HB_4_CW
0 <= Grafik_HB_5_PT
0 <= Grafik_KC_1_PN
0 <= Grafik_KC_2_WT
0 <= Grafik_KC_3_SR
0 <= Grafik_KC_4_CW
0 <= Grafik_KC_5_PT
0 <= Grafik_KS_1_PN
0 <= Grafik_KS_2_WT
0 <= Grafik_KS_3_SR
0 <= Grafik_KS_4_CW
0 <= Grafik_KS_5_PT
0 <= Grafik_NK_1_PN
0 <= Grafik_NK_2_WT
0 <= Grafik_NK_3_SR
0 <= Grafik_NK_4_CW
0 <= Grafik_NK_5_PT
0 <= Grafik_SC_1_PN
0 <= Grafik_SC_2_WT
0 <= Grafik_SC_3_SR
0 <= Grafik_SC_4_CW
0 <= Grafik_SC_5_PT
__dummy = 0
Generals
Grafik_AA_1_PN
Grafik_AA_2_WT
Grafik_AA_3_SR
Grafik_AA_4_CW
Grafik_AA_5_PT
Grafik_DH_1_PN
Grafik_DH_2_WT
Grafik_DH_3_SR
Grafik_DH_4_CW
Grafik_DH_5_PT
Grafik_HB_1_PN
Grafik_HB_2_WT
Grafik_HB_3_SR
Grafik_HB_4_CW
Grafik_HB_5_PT
Grafik_KC_1_PN
Grafik_KC_2_WT
Grafik_KC_3_SR
Grafik_KC_4_CW
Grafik_KC_5_PT
Grafik_KS_1_PN
Grafik_KS_2_WT
Grafik_KS_3_SR
Grafik_KS_4_CW
Grafik_KS_5_PT
Grafik_NK_1_PN
Grafik_NK_2_WT
Grafik_NK_3_SR
Grafik_NK_4_CW
Grafik_NK_5_PT
Grafik_SC_1_PN
Grafik_SC_2_WT
Grafik_SC_3_SR
Grafik_SC_4_CW
Grafik_SC_5_PT
End
